Minimal K-points kx
200
line mode
reciprocal
0.0 0.0 0.0
0.2 0.0 0.0
