Bi2Se3 rhombohedral cell: 1x15 layers; vacuum 0.0 Angstroms
4.138
0.5 -0.28867513459481288225 2.30096665056
0.0 0.577350269189625764509 2.30096665056
-0.5 -0.28867513459481288225 2.30096665056
2 3
Direct
0.19339592917 0.19339592917 0.19339592917 QL1-Bi1p-A
0.395102961049 0.395102961049 0.395102961049 QL2-Bi1-A
0.0 0.0 0.0 QL1-Se1-A
0.588498890219 0.588498890219 0.588498890219 QL2-Se1p-A
0.79424944511 0.79424944511 0.79424944511 QL3-Se2-A
