K-points G-Z-F-G-L
25
line mode
reciprocal
0.0 0.0 0.0
0.5 0.5 0.5

0.5 0.5 0.5
0.5 0.5 0.0

0.5 0.5 0.0
0.0 0.0 0.0

0.0 0.0 0.0
0.5 0.0 0.0
