Bi2Se3: 1x15 layers; vacuum 0.0 Angstroms
4.138
1.0 0.0 0.0
-0.5 0.86602540378443864676 0.0
0.0 0.0 6.90289995167
6 9
Direct
0.666667 0.333333 0.0617696277158 QL1-Bi1-B
0.0 0.0 0.19339592917 QL1-Bi1p-A
0.0 0.0 0.395102961049 QL2-Bi1-A
0.333333 0.666667 0.526729262503 QL2-Bi1p-C
0.333333 0.666667 0.728436294382 QL3-Bi1-C
0.666667 0.333333 0.860062595837 QL3-Bi1p-B
0.0 0.0 0.0 QL1-Se1-A
0.333333 0.666667 0.127582778443 QL1-Se2-C
0.666667 0.333333 0.255165556886 QL1-Se1p-B
0.333333 0.666667 0.333333333333 QL2-Se1-C
0.666667 0.333333 0.460916111776 QL2-Se2-B
0.0 0.0 0.588498890219 QL2-Se1p-A
0.666667 0.333333 0.666666666667 QL3-Se1-B
0.0 0.0 0.79424944511 QL3-Se2-A
0.333333 0.666667 0.921832223553 QL3-Se1p-C
